c 
c G(k,n,p) graph
c graph gen seed     : 9322
c number of vertices : 50
c max number of edges: 625
c number of classes  : 2
c edge density       : 0.400000
c edge probability   : 0.800000
c data structure     : dense
c
c           Graph Stats
c number of vertices  : 50
c nonisolated vertices: 50
c number of edges     : 431
c edge density        : 0.351837
c max degree          : 32
c avg degree          : 17.24
c min degree          : 9
p col 50 431
e 1 3
e 1 5
e 1 6
e 1 11
e 1 13
e 1 14
e 1 16
e 1 17
e 1 19
e 1 20
e 1 21
e 1 22
e 1 23
e 1 24
e 1 25
e 1 27
e 1 29
e 1 32
e 1 33
e 1 34
e 1 35
e 1 39
e 1 40
e 1 42
e 1 43
e 1 44
e 1 47
e 1 48
e 1 49
e 2 3
e 2 5
e 2 8
e 2 9
e 2 11
e 2 12
e 2 13
e 2 14
e 2 16
e 2 17
e 2 19
e 2 20
e 2 21
e 2 22
e 2 23
e 2 24
e 2 25
e 2 26
e 2 27
e 2 30
e 2 32
e 2 34
e 2 35
e 2 39
e 2 40
e 2 42
e 2 43
e 2 47
e 3 4
e 3 10
e 3 15
e 3 31
e 3 36
e 3 41
e 3 45
e 3 46
e 3 50
e 4 5
e 4 6
e 4 8
e 4 9
e 4 11
e 4 12
e 4 14
e 4 16
e 4 17
e 4 18
e 4 19
e 4 20
e 4 22
e 4 23
e 4 27
e 4 29
e 4 30
e 4 32
e 4 34
e 4 35
e 4 39
e 4 40
e 4 42
e 4 43
e 4 44
e 4 47
e 4 48
e 5 7
e 5 15
e 5 28
e 5 31
e 5 37
e 5 38
e 5 41
e 5 45
e 5 50
e 6 7
e 6 10
e 6 15
e 6 28
e 6 37
e 6 38
e 6 41
e 6 45
e 6 46
e 6 50
e 7 9
e 7 11
e 7 12
e 7 13
e 7 14
e 7 16
e 7 17
e 7 18
e 7 19
e 7 20
e 7 21
e 7 23
e 7 24
e 7 25
e 7 26
e 7 30
e 7 34
e 7 35
e 7 39
e 7 40
e 7 42
e 7 43
e 7 44
e 7 47
e 7 49
e 8 10
e 8 15
e 8 28
e 8 31
e 8 36
e 8 37
e 8 38
e 8 41
e 8 46
e 9 10
e 9 28
e 9 31
e 9 36
e 9 37
e 9 38
e 9 41
e 9 46
e 9 50
e 10 11
e 10 12
e 10 13
e 10 14
e 10 17
e 10 18
e 10 21
e 10 23
e 10 27
e 10 29
e 10 30
e 10 32
e 10 33
e 10 34
e 10 35
e 10 39
e 10 40
e 10 43
e 10 44
e 10 47
e 10 48
e 10 49
e 11 15
e 11 28
e 11 31
e 11 37
e 11 38
e 11 41
e 11 45
e 11 50
e 12 15
e 12 28
e 12 31
e 12 36
e 12 38
e 12 46
e 12 50
e 13 15
e 13 36
e 13 38
e 13 41
e 13 45
e 13 50
e 14 15
e 14 28
e 14 31
e 14 36
e 14 37
e 14 46
e 14 50
e 15 16
e 15 17
e 15 18
e 15 19
e 15 20
e 15 22
e 15 23
e 15 24
e 15 27
e 15 29
e 15 30
e 15 32
e 15 33
e 15 34
e 15 35
e 15 39
e 15 40
e 15 42
e 15 43
e 15 44
e 15 47
e 15 48
e 15 49
e 16 28
e 16 31
e 16 36
e 16 41
e 16 45
e 16 46
e 16 50
e 17 28
e 17 31
e 17 36
e 17 37
e 17 38
e 17 50
e 18 28
e 18 31
e 18 36
e 18 37
e 18 38
e 18 41
e 18 46
e 18 50
e 19 28
e 19 31
e 19 37
e 19 38
e 19 41
e 19 45
e 19 46
e 19 50
e 20 28
e 20 31
e 20 37
e 20 38
e 20 41
e 20 45
e 20 46
e 21 28
e 21 31
e 21 36
e 21 37
e 21 38
e 21 41
e 21 46
e 22 28
e 22 31
e 22 36
e 22 37
e 22 38
e 22 41
e 22 45
e 22 46
e 22 50
e 23 28
e 23 31
e 23 36
e 23 38
e 23 41
e 23 45
e 23 46
e 23 50
e 24 28
e 24 31
e 24 36
e 24 37
e 24 38
e 24 41
e 24 45
e 24 46
e 24 50
e 25 28
e 25 31
e 25 36
e 25 37
e 25 38
e 25 41
e 25 45
e 25 46
e 25 50
e 26 28
e 26 31
e 26 36
e 26 37
e 26 38
e 26 41
e 26 46
e 26 50
e 27 28
e 27 31
e 27 36
e 27 37
e 27 38
e 27 41
e 27 45
e 27 46
e 28 30
e 28 32
e 28 33
e 28 34
e 28 35
e 28 39
e 28 40
e 28 42
e 28 43
e 28 47
e 28 48
e 29 31
e 29 36
e 29 37
e 29 38
e 29 41
e 29 45
e 29 46
e 29 50
e 30 31
e 30 36
e 30 38
e 30 41
e 30 45
e 30 46
e 30 50
e 31 32
e 31 33
e 31 34
e 31 35
e 31 39
e 31 42
e 31 43
e 31 44
e 31 47
e 31 48
e 31 49
e 32 36
e 32 37
e 32 38
e 32 41
e 32 45
e 32 46
e 32 50
e 33 36
e 33 37
e 33 38
e 33 41
e 33 45
e 33 46
e 33 50
e 34 36
e 34 37
e 34 38
e 34 41
e 34 45
e 35 37
e 35 41
e 35 45
e 35 46
e 35 50
e 36 39
e 36 40
e 36 42
e 36 43
e 36 44
e 36 47
e 36 48
e 36 49
e 37 39
e 37 40
e 37 42
e 37 43
e 37 44
e 37 47
e 37 49
e 38 39
e 38 40
e 38 42
e 38 44
e 38 47
e 38 48
e 39 41
e 39 45
e 39 50
e 40 41
e 40 45
e 40 46
e 40 50
e 41 42
e 41 43
e 41 47
e 41 48
e 42 45
e 42 46
e 42 50
e 43 45
e 43 46
e 43 50
e 44 46
e 44 50
e 45 47
e 45 48
e 46 47
e 46 48
e 46 49
e 47 50
e 48 50
e 49 50
